# Solution for model GasLib-40
# Objective value = 78.4222779593672
loadshed[innode_1] 0
loadshed[innode_2] 0
loadshed[innode_3] 0
loadshed[innode_4] 0
loadshed[innode_5] 0
loadshed[innode_6] 0
loadshed[innode_7] 0
loadshed[innode_8] 0
loadshed[source_1] -2.4392382475121543e-02
loadshed[source_2] 1.2876982644775981e-01
loadshed[source_3] 3.9168264942274578e-01
loadshed[sink_1] 1
loadshed[sink_2] 0
loadshed[sink_3] 0
loadshed[sink_4] 0
loadshed[sink_5] 0
loadshed[sink_6] 0
loadshed[sink_7] 0
loadshed[sink_8] 0
loadshed[sink_9] 0
loadshed[sink_10] 0
loadshed[sink_11] 0
loadshed[sink_12] 1
loadshed[sink_13] 0
loadshed[sink_14] 0
loadshed[sink_15] 0
loadshed[sink_16] 0
loadshed[sink_17] 0
loadshed[sink_18] 3.6804094478582039e-01
loadshed[sink_19] 0
loadshed[sink_20] 0
loadshed[sink_21] 1
loadshed[sink_22] 4.6789281773978292e-01
loadshed[sink_23] 0
loadshed[sink_24] 9.5931380696436475e-01
loadshed[sink_25] 0
loadshed[sink_26] 0
loadshed[sink_27] 0
loadshed[sink_28] 0
loadshed[sink_29] 0
flow[source_1,sink_3] 1.6194647629893154e+02
flow[innode_1,sink_16] 1.6354166666666970e+01
flow[innode_6,sink_13] 1.8310107736880283e+01
flow[sink_13,sink_14] 1.9559410702136155e+00
flow[sink_14,sink_10] -1.4398225596453052e+01
flow[sink_25,sink_26] 0
flow[sink_26,sink_9] 1.6354166666669244e+01
flow[sink_9,sink_18] 0
flow[sink_26,sink_4] -3.2708333333335915e+01
flow[sink_4,sink_20] -7.9581247717597634e+01
flow[sink_18,sink_6] -1.0335163715481897e+01
flow[sink_25,innode_8] -1.2923814296559519e+02
flow[sink_6,sink_7] -3.5391499925362538e+01
flow[sink_6,sink_22] 8.7021695432139676e+00
flow[sink_7,sink_24] 6.6538878193695217e-01
flow[sink_22,sink_1] 0
flow[sink_24,sink_21] 0
flow[sink_21,sink_12] 0
flow[sink_7,sink_5] -5.2411055373966157e+01
flow[sink_5,sink_17] -6.8765222040632821e+01
flow[sink_17,sink_4] -3.0518747717595033e+01
flow[sink_17,sink_8] -5.4600640989704516e+01
flow[sink_3,sink_23] 16.3541666666697
flow[sink_8,sink_20] -7.0954807656371187e+01
flow[sink_25,sink_20] 1.6689022204063539e+02
flow[sink_25,sink_15] -72.3163534785873
flow[sink_15,sink_29] -5.0954234482977093e+01
flow[sink_29,sink_28] 1.6354166666667879e+01
flow[sink_29,sink_2] 5.4070452328943546e+01
flow[sink_2,sink_15] 3.7716285662276874e+01
flow[sink_29,innode_7] -1.3773302014525518e+02
flow[innode_4,sink_19] 7.9814892263120242e+01
flow[sink_19,innode_3] 3.0968566223492083e+01
flow[innode_4,innode_5] 1.6354166666679703e+01
flow[sink_27,innode_5] -1.6354166666679703e+01
flow[sink_27,sink_19] 0
flow[sink_10,sink_11] 3.2708333333333641e+01
flow[sink_10,innode_2] -3.2492159372961275e+01
flow[sink_10,innode_3] -3.0968566223492083e+01
flow[innode_6,sink_25] -1.8310107736880283e+01
flow[sink_11,innode_1] 1.6354166666666970e+01
flow[sink_19,innode_2] 3.2492159372961275e+01
flow[source_3,innode_4] 9.6169058929799945e+01
flow[source_2,innode_7] 1.3773302014525518e+02
flow[sink_3,innode_8] 1.2923814296559519e+02
pressure[innode_1] 7.5910699217438548e+01
pressure[innode_2] 77.7797453449164
pressure[innode_3] 77.7111689618242
pressure[innode_4] 81.01325
pressure[innode_5] 8.1002000741808786e+01
pressure[innode_6] 7.5485825558745333e+01
pressure[innode_7] 81.01325
pressure[innode_8] 80.471924795529
pressure[source_1] 81.01325
pressure[source_2] 81.01325
pressure[source_3] 81.01325
pressure[sink_1] 1.0132500000000002e+00
pressure[sink_2] 7.5959765699902164e+01
pressure[sink_3] 80.471924795529
pressure[sink_4] 2.9861256549443716e+01
pressure[sink_5] 2.3572418651411265e+01
pressure[sink_6] 1.2892296430296792e+00
pressure[sink_7] 1.7750705764371673e+00
pressure[sink_8] 3.0755154677655881e+01
pressure[sink_9] 2.4723795312555247e+01
pressure[sink_10] 76.0624005250421
pressure[sink_11] 7.5910699217438548e+01
pressure[sink_12] 1.01325
pressure[sink_13] 7.5384884994695170e+01
pressure[sink_14] 7.5381384671540729e+01
pressure[sink_15] 75.8366303397503
pressure[sink_16] 7.4889049382620868e+01
pressure[sink_17] 2.8694930644137145e+01
pressure[sink_18] 1.01325
pressure[sink_19] 77.7797453449164
pressure[sink_20] 3.5699706914613174e+01
pressure[sink_21] 1.01325
pressure[sink_22] 1.0132500000000002e+00
pressure[sink_23] 8.0307206783869219e+01
pressure[sink_24] 1.01325
pressure[sink_25] 7.5485825558745333e+01
pressure[sink_26] 2.5702634396497668e+01
pressure[sink_27] 8.0866291377726043e+01
pressure[sink_28] 7.7034149005983750e+01
pressure[sink_29] 7.7329431279600939e+01
interdiction[source_1,sink_3] 0
interdiction[innode_1,sink_16] 0
interdiction[innode_6,sink_13] 0
interdiction[sink_13,sink_14] 0
interdiction[sink_14,sink_10] 0
interdiction[sink_25,sink_26] 1
interdiction[sink_26,sink_9] 0
interdiction[sink_9,sink_18] 1
interdiction[sink_26,sink_4] 0
interdiction[sink_4,sink_20] 0
interdiction[sink_18,sink_6] 0
interdiction[sink_25,innode_8] 0
interdiction[sink_6,sink_7] 0
interdiction[sink_6,sink_22] 0
interdiction[sink_7,sink_24] 0
interdiction[sink_22,sink_1] 0
interdiction[sink_24,sink_21] 0
interdiction[sink_21,sink_12] 0
interdiction[sink_7,sink_5] 0
interdiction[sink_5,sink_17] 0
interdiction[sink_17,sink_4] 0
interdiction[sink_17,sink_8] 0
interdiction[sink_3,sink_23] 0
interdiction[sink_8,sink_20] 0
interdiction[sink_25,sink_20] 0
interdiction[sink_25,sink_15] 0
interdiction[sink_15,sink_29] 0
interdiction[sink_29,sink_28] 0
interdiction[sink_29,sink_2] 0
interdiction[sink_2,sink_15] 0
interdiction[sink_29,innode_7] 0
interdiction[innode_4,sink_19] 0
interdiction[sink_19,innode_3] 0
interdiction[innode_4,innode_5] 0
interdiction[sink_27,innode_5] 0
interdiction[sink_27,sink_19] 1
interdiction[sink_10,sink_11] 0
interdiction[sink_10,innode_2] 0
interdiction[sink_10,innode_3] 0
interdiction[innode_6,sink_25] 0
interdiction[sink_11,innode_1] 0
interdiction[sink_19,innode_2] 0
interdiction[source_3,innode_4] 0
interdiction[source_2,innode_7] 0
interdiction[sink_3,innode_8] 0
WCcheckFlow[source_1,sink_3] 39
WCcheckFlow[innode_1,sink_16] 1
WCcheckFlow[innode_6,sink_13] 13
WCcheckFlow[sink_13,sink_14] 12
WCcheckFlow[sink_14,sink_10] 11
WCcheckFlow[sink_25,sink_26] 0
WCcheckFlow[sink_26,sink_9] 1
WCcheckFlow[sink_9,sink_18] 0
WCcheckFlow[sink_26,sink_4] -2
WCcheckFlow[sink_4,sink_20] -14
WCcheckFlow[sink_18,sink_6] -1
WCcheckFlow[sink_25,innode_8] -36
WCcheckFlow[sink_6,sink_7] -4
WCcheckFlow[sink_6,sink_22] 2
WCcheckFlow[sink_7,sink_24] 3
WCcheckFlow[sink_22,sink_1] 1
WCcheckFlow[sink_24,sink_21] 2
WCcheckFlow[sink_21,sink_12] 1
WCcheckFlow[sink_7,sink_5] -8
WCcheckFlow[sink_5,sink_17] -9
WCcheckFlow[sink_17,sink_4] -11
WCcheckFlow[sink_17,sink_8] 1
WCcheckFlow[sink_3,sink_23] 1
WCcheckFlow[sink_8,sink_20] 0
WCcheckFlow[sink_25,sink_20] 15
WCcheckFlow[sink_25,sink_15] 6
WCcheckFlow[sink_15,sink_29] 5
WCcheckFlow[sink_29,sink_28] 1
WCcheckFlow[sink_29,sink_2] 1
WCcheckFlow[sink_2,sink_15] 0
WCcheckFlow[sink_29,innode_7] 2
WCcheckFlow[innode_4,sink_19] -4
WCcheckFlow[sink_19,innode_3] -5
WCcheckFlow[innode_4,innode_5] 2
WCcheckFlow[sink_27,innode_5] -1
WCcheckFlow[sink_27,sink_19] 0
WCcheckFlow[sink_10,sink_11] 3
WCcheckFlow[sink_10,innode_2] 1
WCcheckFlow[sink_10,innode_3] 6
WCcheckFlow[innode_6,sink_25] -14
WCcheckFlow[sink_11,innode_1] 2
WCcheckFlow[sink_19,innode_2] 0
WCcheckFlow[source_3,innode_4] -1
WCcheckFlow[source_2,innode_7] -1
WCcheckFlow[sink_3,innode_8] 37
